certificates/rado_a13_c33_N71.cnf
c Rad2 upper bound instance: x1 + 13*x2 - x3 = 33, interval [1,71]
p cnf 71 620
1 3 7 0
-1 -3 -7 0
1 4 20 0
-1 -4 -20 0
1 5 33 0
-1 -5 -33 0
1 6 46 0
-1 -6 -46 0
1 7 59 0
-1 -7 -59 0
2 3 8 0
-2 -3 -8 0
2 4 21 0
-2 -4 -21 0
2 5 34 0
-2 -5 -34 0
2 6 47 0
-2 -6 -47 0
2 7 60 0
-2 -7 -60 0
3 9 0
-3 -9 0
3 4 22 0
-3 -4 -22 0
3 5 35 0
-3 -5 -35 0
3 6 48 0
-3 -6 -48 0
3 7 61 0
-3 -7 -61 0
3 4 10 0
-3 -4 -10 0
4 23 0
-4 -23 0
4 5 36 0
-4 -5 -36 0
4 6 49 0
-4 -6 -49 0
4 7 62 0
-4 -7 -62 0
3 5 11 0
-3 -5 -11 0
4 5 24 0
-4 -5 -24 0
5 37 0
-5 -37 0
5 6 50 0
-5 -6 -50 0
5 7 63 0
-5 -7 -63 0
3 6 12 0
-3 -6 -12 0
4 6 25 0
-4 -6 -25 0
5 6 38 0
-5 -6 -38 0
6 51 0
-6 -51 0
6 7 64 0
-6 -7 -64 0
3 7 13 0
-3 -7 -13 0
4 7 26 0
-4 -7 -26 0
5 7 39 0
-5 -7 -39 0
6 7 52 0
-6 -7 -52 0
7 65 0
-7 -65 0
1 2 8 0
-1 -2 -8 0
3 8 14 0
-3 -8 -14 0
4 8 27 0
-4 -8 -27 0
5 8 40 0
-5 -8 -40 0
6 8 53 0
-6 -8 -53 0
7 8 66 0
-7 -8 -66 0
2 9 0
-2 -9 0
3 9 15 0
-3 -9 -15 0
4 9 28 0
-4 -9 -28 0
5 9 41 0
-5 -9 -41 0
6 9 54 0
-6 -9 -54 0
7 9 67 0
-7 -9 -67 0
2 3 10 0
-2 -3 -10 0
3 10 16 0
-3 -10 -16 0
4 10 29 0
-4 -10 -29 0
5 10 42 0
-5 -10 -42 0
6 10 55 0
-6 -10 -55 0
7 10 68 0
-7 -10 -68 0
2 4 11 0
-2 -4 -11 0
3 11 17 0
-3 -11 -17 0
4 11 30 0
-4 -11 -30 0
5 11 43 0
-5 -11 -43 0
6 11 56 0
-6 -11 -56 0
7 11 69 0
-7 -11 -69 0
2 5 12 0
-2 -5 -12 0
3 12 18 0
-3 -12 -18 0
4 12 31 0
-4 -12 -31 0
5 12 44 0
-5 -12 -44 0
6 12 57 0
-6 -12 -57 0
7 12 70 0
-7 -12 -70 0
2 6 13 0
-2 -6 -13 0
3 13 19 0
-3 -13 -19 0
4 13 32 0
-4 -13 -32 0
5 13 45 0
-5 -13 -45 0
6 13 58 0
-6 -13 -58 0
7 13 71 0
-7 -13 -71 0
2 7 14 0
-2 -7 -14 0
3 14 20 0
-3 -14 -20 0
4 14 33 0
-4 -14 -33 0
5 14 46 0
-5 -14 -46 0
6 14 59 0
-6 -14 -59 0
2 8 15 0
-2 -8 -15 0
3 15 21 0
-3 -15 -21 0
4 15 34 0
-4 -15 -34 0
5 15 47 0
-5 -15 -47 0
6 15 60 0
-6 -15 -60 0
2 9 16 0
-2 -9 -16 0
3 16 22 0
-3 -16 -22 0
4 16 35 0
-4 -16 -35 0
5 16 48 0
-5 -16 -48 0
6 16 61 0
-6 -16 -61 0
2 10 17 0
-2 -10 -17 0
3 17 23 0
-3 -17 -23 0
4 17 36 0
-4 -17 -36 0
5 17 49 0
-5 -17 -49 0
6 17 62 0
-6 -17 -62 0
2 11 18 0
-2 -11 -18 0
3 18 24 0
-3 -18 -24 0
4 18 37 0
-4 -18 -37 0
5 18 50 0
-5 -18 -50 0
6 18 63 0
-6 -18 -63 0
2 12 19 0
-2 -12 -19 0
3 19 25 0
-3 -19 -25 0
4 19 38 0
-4 -19 -38 0
5 19 51 0
-5 -19 -51 0
6 19 64 0
-6 -19 -64 0
2 13 20 0
-2 -13 -20 0
3 20 26 0
-3 -20 -26 0
4 20 39 0
-4 -20 -39 0
5 20 52 0
-5 -20 -52 0
6 20 65 0
-6 -20 -65 0
1 21 0
-1 -21 0
2 14 21 0
-2 -14 -21 0
3 21 27 0
-3 -21 -27 0
4 21 40 0
-4 -21 -40 0
5 21 53 0
-5 -21 -53 0
6 21 66 0
-6 -21 -66 0
1 2 22 0
-1 -2 -22 0
2 15 22 0
-2 -15 -22 0
3 22 28 0
-3 -22 -28 0
4 22 41 0
-4 -22 -41 0
5 22 54 0
-5 -22 -54 0
6 22 67 0
-6 -22 -67 0
1 3 23 0
-1 -3 -23 0
2 16 23 0
-2 -16 -23 0
3 23 29 0
-3 -23 -29 0
4 23 42 0
-4 -23 -42 0
5 23 55 0
-5 -23 -55 0
6 23 68 0
-6 -23 -68 0
1 4 24 0
-1 -4 -24 0
2 17 24 0
-2 -17 -24 0
3 24 30 0
-3 -24 -30 0
4 24 43 0
-4 -24 -43 0
5 24 56 0
-5 -24 -56 0
6 24 69 0
-6 -24 -69 0
1 5 25 0
-1 -5 -25 0
2 18 25 0
-2 -18 -25 0
3 25 31 0
-3 -25 -31 0
4 25 44 0
-4 -25 -44 0
5 25 57 0
-5 -25 -57 0
6 25 70 0
-6 -25 -70 0
1 6 26 0
-1 -6 -26 0
2 19 26 0
-2 -19 -26 0
3 26 32 0
-3 -26 -32 0
4 26 45 0
-4 -26 -45 0
5 26 58 0
-5 -26 -58 0
6 26 71 0
-6 -26 -71 0
1 7 27 0
-1 -7 -27 0
2 20 27 0
-2 -20 -27 0
3 27 33 0
-3 -27 -33 0
4 27 46 0
-4 -27 -46 0
5 27 59 0
-5 -27 -59 0
1 8 28 0
-1 -8 -28 0
2 21 28 0
-2 -21 -28 0
3 28 34 0
-3 -28 -34 0
4 28 47 0
-4 -28 -47 0
5 28 60 0
-5 -28 -60 0
1 9 29 0
-1 -9 -29 0
2 22 29 0
-2 -22 -29 0
3 29 35 0
-3 -29 -35 0
4 29 48 0
-4 -29 -48 0
5 29 61 0
-5 -29 -61 0
1 10 30 0
-1 -10 -30 0
2 23 30 0
-2 -23 -30 0
3 30 36 0
-3 -30 -36 0
4 30 49 0
-4 -30 -49 0
5 30 62 0
-5 -30 -62 0
1 11 31 0
-1 -11 -31 0
2 24 31 0
-2 -24 -31 0
3 31 37 0
-3 -31 -37 0
4 31 50 0
-4 -31 -50 0
5 31 63 0
-5 -31 -63 0
1 12 32 0
-1 -12 -32 0
2 25 32 0
-2 -25 -32 0
3 32 38 0
-3 -32 -38 0
4 32 51 0
-4 -32 -51 0
5 32 64 0
-5 -32 -64 0
1 13 33 0
-1 -13 -33 0
2 26 33 0
-2 -26 -33 0
3 33 39 0
-3 -33 -39 0
4 33 52 0
-4 -33 -52 0
5 33 65 0
-5 -33 -65 0
1 14 34 0
-1 -14 -34 0
2 27 34 0
-2 -27 -34 0
3 34 40 0
-3 -34 -40 0
4 34 53 0
-4 -34 -53 0
5 34 66 0
-5 -34 -66 0
1 15 35 0
-1 -15 -35 0
2 28 35 0
-2 -28 -35 0
3 35 41 0
-3 -35 -41 0
4 35 54 0
-4 -35 -54 0
5 35 67 0
-5 -35 -67 0
1 16 36 0
-1 -16 -36 0
2 29 36 0
-2 -29 -36 0
3 36 42 0
-3 -36 -42 0
4 36 55 0
-4 -36 -55 0
5 36 68 0
-5 -36 -68 0
1 17 37 0
-1 -17 -37 0
2 30 37 0
-2 -30 -37 0
3 37 43 0
-3 -37 -43 0
4 37 56 0
-4 -37 -56 0
5 37 69 0
-5 -37 -69 0
1 18 38 0
-1 -18 -38 0
2 31 38 0
-2 -31 -38 0
3 38 44 0
-3 -38 -44 0
4 38 57 0
-4 -38 -57 0
5 38 70 0
-5 -38 -70 0
1 19 39 0
-1 -19 -39 0
2 32 39 0
-2 -32 -39 0
3 39 45 0
-3 -39 -45 0
4 39 58 0
-4 -39 -58 0
5 39 71 0
-5 -39 -71 0
1 20 40 0
-1 -20 -40 0
2 33 40 0
-2 -33 -40 0
3 40 46 0
-3 -40 -46 0
4 40 59 0
-4 -40 -59 0
1 21 41 0
-1 -21 -41 0
2 34 41 0
-2 -34 -41 0
3 41 47 0
-3 -41 -47 0
4 41 60 0
-4 -41 -60 0
1 22 42 0
-1 -22 -42 0
2 35 42 0
-2 -35 -42 0
3 42 48 0
-3 -42 -48 0
4 42 61 0
-4 -42 -61 0
1 23 43 0
-1 -23 -43 0
2 36 43 0
-2 -36 -43 0
3 43 49 0
-3 -43 -49 0
4 43 62 0
-4 -43 -62 0
1 24 44 0
-1 -24 -44 0
2 37 44 0
-2 -37 -44 0
3 44 50 0
-3 -44 -50 0
4 44 63 0
-4 -44 -63 0
1 25 45 0
-1 -25 -45 0
2 38 45 0
-2 -38 -45 0
3 45 51 0
-3 -45 -51 0
4 45 64 0
-4 -45 -64 0
1 26 46 0
-1 -26 -46 0
2 39 46 0
-2 -39 -46 0
3 46 52 0
-3 -46 -52 0
4 46 65 0
-4 -46 -65 0
1 27 47 0
-1 -27 -47 0
2 40 47 0
-2 -40 -47 0
3 47 53 0
-3 -47 -53 0
4 47 66 0
-4 -47 -66 0
1 28 48 0
-1 -28 -48 0
2 41 48 0
-2 -41 -48 0
3 48 54 0
-3 -48 -54 0
4 48 67 0
-4 -48 -67 0
1 29 49 0
-1 -29 -49 0
2 42 49 0
-2 -42 -49 0
3 49 55 0
-3 -49 -55 0
4 49 68 0
-4 -49 -68 0
1 30 50 0
-1 -30 -50 0
2 43 50 0
-2 -43 -50 0
3 50 56 0
-3 -50 -56 0
4 50 69 0
-4 -50 -69 0
1 31 51 0
-1 -31 -51 0
2 44 51 0
-2 -44 -51 0
3 51 57 0
-3 -51 -57 0
4 51 70 0
-4 -51 -70 0
1 32 52 0
-1 -32 -52 0
2 45 52 0
-2 -45 -52 0
3 52 58 0
-3 -52 -58 0
4 52 71 0
-4 -52 -71 0
1 33 53 0
-1 -33 -53 0
2 46 53 0
-2 -46 -53 0
3 53 59 0
-3 -53 -59 0
1 34 54 0
-1 -34 -54 0
2 47 54 0
-2 -47 -54 0
3 54 60 0
-3 -54 -60 0
1 35 55 0
-1 -35 -55 0
2 48 55 0
-2 -48 -55 0
3 55 61 0
-3 -55 -61 0
1 36 56 0
-1 -36 -56 0
2 49 56 0
-2 -49 -56 0
3 56 62 0
-3 -56 -62 0
1 37 57 0
-1 -37 -57 0
2 50 57 0
-2 -50 -57 0
3 57 63 0
-3 -57 -63 0
1 38 58 0
-1 -38 -58 0
2 51 58 0
-2 -51 -58 0
3 58 64 0
-3 -58 -64 0
1 39 59 0
-1 -39 -59 0
2 52 59 0
-2 -52 -59 0
3 59 65 0
-3 -59 -65 0
1 40 60 0
-1 -40 -60 0
2 53 60 0
-2 -53 -60 0
3 60 66 0
-3 -60 -66 0
1 41 61 0
-1 -41 -61 0
2 54 61 0
-2 -54 -61 0
3 61 67 0
-3 -61 -67 0
1 42 62 0
-1 -42 -62 0
2 55 62 0
-2 -55 -62 0
3 62 68 0
-3 -62 -68 0
1 43 63 0
-1 -43 -63 0
2 56 63 0
-2 -56 -63 0
3 63 69 0
-3 -63 -69 0
1 44 64 0
-1 -44 -64 0
2 57 64 0
-2 -57 -64 0
3 64 70 0
-3 -64 -70 0
1 45 65 0
-1 -45 -65 0
2 58 65 0
-2 -58 -65 0
3 65 71 0
-3 -65 -71 0
1 46 66 0
-1 -46 -66 0
2 59 66 0
-2 -59 -66 0
1 47 67 0
-1 -47 -67 0
2 60 67 0
-2 -60 -67 0
1 48 68 0
-1 -48 -68 0
2 61 68 0
-2 -61 -68 0
1 49 69 0
-1 -49 -69 0
2 62 69 0
-2 -62 -69 0
1 50 70 0
-1 -50 -70 0
2 63 70 0
-2 -63 -70 0
1 51 71 0
-1 -51 -71 0
2 64 71 0
-2 -64 -71 0
