certificates/rado_a13_c33_N71.drat
-65 -71 0
-7 -67 0
d -7 -9 -67 0
-3 -7 0
11 65 0
12 65 0
-71 0
65 0
-7 0
13 0
-3 0
1 0
9 0
61 0
-21 0
-45 0
-29 0
-41 0
-33 0
-2 0
15 0
27 0
4 0
14 0
28 0
51 0
52 0
38 0
39 0
35 0
36 0
23 0
47 0
48 0
34 0
40 0
26 0
22 0
64 0
60 0
8 0
10 0
0
